sat
(:added-eqs           74393
 :binary-propagations 932
 :conflicts           988
 :decisions           2481
 :del-clause          567
 :dyn-ack             4
 :final-checks        1
 :max-memory          51.81
 :memory              17.78
 :minimized-lits      1479
 :mk-bool-var         523
 :mk-clause           1010
 :mk-clause-binary    80
 :num-allocs          8901762
 :num-checks          1
 :propagations        9636
 :restarts            6
 :rlimit-count        196721
 :solve-eqs-elim-vars 5
 :solve-eqs-steps     12
 :time                0.03
 :total-time          0.05)
